p cnf 91 315
4 2 0
4 3 0
-2 -3 -4 0
5 1 0
5 4 0
-1 -4 -5 0
-8 7 0
-8 -2 0
-7 2 8 0
9 -6 0
9 -8 0
6 8 -9 0
3 9 -10 0
-3 -9 -10 0
3 -9 10 0
-3 9 10 0
-11 -4 0
-11 -4 0
4 11 0
-7 13 -14 0
7 -13 -14 0
-7 -13 14 0
7 13 14 0
15 -14 0
15 -14 0
14 -15 0
16 -12 0
16 15 0
12 -15 -16 0
-11 16 -17 0
11 -16 -17 0
-11 -16 17 0
11 16 17 0
-10 -17 -18 0
10 17 -18 0
-10 17 18 0
10 -17 18 0
1 -12 -19 0
-1 12 -19 0
1 12 19 0
-1 -12 19 0
19 -2 -20 0
-19 2 -20 0
19 2 20 0
-19 -2 20 0
-22 20 0
-22 -21 0
-20 21 22 0
8 -13 -23 0
-8 13 -23 0
8 13 23 0
-8 -13 23 0
-24 -22 0
-24 23 0
22 -23 24 0
-25 -3 0
-25 6 0
3 -6 25 0
-13 -20 -27 0
13 20 -27 0
-13 20 27 0
13 -20 27 0
26 -1 -28 0
-26 1 -28 0
26 1 28 0
-26 -1 28 0
27 -28 -29 0
-27 28 -29 0
27 28 29 0
-27 -28 29 0
26 29 -30 0
-26 -29 -30 0
26 -29 30 0
-26 29 30 0
-30 31 -32 0
30 -31 -32 0
-30 -31 32 0
30 31 32 0
33 25 0
33 32 0
-25 -32 -33 0
-34 24 0
-34 33 0
-24 -33 34 0
-35 20 0
-35 -7 0
-20 7 35 0
-37 36 0
-37 -14 0
-36 14 37 0
-35 37 -38 0
35 -37 -38 0
-35 -37 38 0
35 37 38 0
-39 34 0
-39 38 0
-34 -38 39 0
40 31 0
40 7 0
-31 -7 -40 0
-4 40 -41 0
4 -40 -41 0
-4 -40 41 0
4 40 41 0
42 21 0
42 21 0
-21 -42 0
9 8 -43 0
-9 -8 -43 0
9 -8 43 0
-9 8 43 0
-40 43 -44 0
40 -43 -44 0
-40 -43 44 0
40 43 44 0
42 44 -45 0
-42 -44 -45 0
42 -44 45 0
-42 44 45 0
-45 -46 -47 0
45 46 -47 0
-45 46 47 0
45 -46 47 0
41 -47 -48 0
-41 47 -48 0
41 47 48 0
-41 -47 48 0
-49 14 0
-49 -27 0
-14 27 49 0
50 -19 0
50 -29 0
19 29 -50 0
-51 49 0
-51 -50 0
-49 50 51 0
53 -7 0
53 -52 0
7 52 -53 0
54 -51 0
54 -53 0
51 53 -54 0
55 1 -56 0
-55 -1 -56 0
55 -1 56 0
-55 1 56 0
-57 -56 0
-57 -13 0
56 13 57 0
-58 54 0
-58 57 0
-54 -57 58 0
59 48 0
59 58 0
-48 -58 -59 0
60 42 0
60 8 0
-42 -8 -60 0
-59 60 -61 0
59 -60 -61 0
-59 -60 61 0
59 60 61 0
62 31 0
62 -1 0
-31 1 -62 0
21 6 -63 0
-21 -6 -63 0
21 -6 63 0
-21 6 63 0
-64 62 0
-64 63 0
-62 -63 64 0
-61 64 -65 0
61 -64 -65 0
-61 -64 65 0
61 64 65 0
39 65 -66 0
-39 -65 -66 0
39 -65 66 0
-39 65 66 0
-67 -18 0
-67 66 0
18 -66 67 0
-68 -4 0
-68 -8 0
4 8 68 0
69 -68 0
69 1 0
68 -1 -69 0
70 -69 0
70 9 0
69 -9 -70 0
70 -43 -71 0
-70 43 -71 0
70 43 71 0
-70 -43 71 0
-36 -71 -72 0
36 71 -72 0
-36 71 72 0
36 -71 72 0
73 -6 0
73 -55 0
6 55 -73 0
-73 -13 -74 0
73 13 -74 0
-73 13 74 0
73 -13 74 0
-75 -30 0
-75 -28 0
30 28 75 0
-76 74 0
-76 75 0
-74 -75 76 0
77 -72 0
77 -76 0
72 76 -77 0
78 67 0
78 77 0
-67 -77 -78 0
-79 -3 0
-79 62 0
3 -62 79 0
-80 -78 0
-80 79 0
78 -79 80 0
-56 -8 -81 0
56 8 -81 0
-56 8 81 0
56 -8 81 0
-82 9 0
-82 55 0
-9 -55 82 0
83 82 0
83 63 0
-82 -63 -83 0
-84 -81 0
-84 -83 0
81 83 84 0
28 -2 -85 0
-28 2 -85 0
28 2 85 0
-28 -2 85 0
-86 -85 0
-86 -70 0
85 70 86 0
87 -63 0
87 -31 0
63 31 -87 0
88 -86 0
88 87 0
86 -87 -88 0
84 88 -89 0
-84 -88 -89 0
84 -88 89 0
-84 88 89 0
-90 80 0
-90 -89 0
-80 89 90 0
5 -90 -91 0
-5 90 -91 0
5 90 91 0
-5 -90 91 0
41 13 78 -70 -17 -58 0
86 75 6 21 -35 -22 0
15 55 75 -47 -2 0
86 29 0
29 60 -11 0
-66 50 19 -68 45 0
6 69 7 -51 31 62 0
-63 -84 -80 82 78 46 0
4 21 -79 33 0
-62 -22 1 0
39 3 0
91 16 64 0
45 61 -76 -59 0
-27 -85 -63 73 30 0
-75 1 0
-6 -71 80 57 14 -1 0
-24 73 0
27 -36 -89 -15 0
33 73 0
12 -51 -50 85 0
77 -60 0
-34 -87 61 40 56 0
-43 39 20 0
-46 43 0
35 39 -6 -26 0
-24 80 31 -72 0
69 65 5 33 -8 0
84 47 87 -54 42 -38 0
-44 -47 -32 78 -89 39 0
-8 -48 19 12 69 -6 0
73 -51 14 0
36 -15 -23 -37 0
42 -6 11 35 0
-16 -45 10 0
85 -66 -67 89 17 0
66 -50 -79 3 -64 0
14 -60 0
82 -24 0
-27 5 41 11 -7 66 0
-30 -67 -31 -63 0
51 9 0
-62 -19 28 90 0
-24 -61 39 37 0
74 66 -40 0
55 69 0
-70 71 0
-37 -81 0
-43 54 -77 -80 -47 -29 0
-58 -69 0
-33 24 66 17 -32 0
55 -50 -22 0
-71 38 0
91 0
